NAME: cuum200.tsp
TYPE: TSP
COMMENT: User-generated TSP file
DIMENSION: 200
EDGE_WEIGHT_TYPE: EUC_2D
NODE_COORD_SECTION
1 23.0 150.0
2 3.0 21.0
3 132.0 43.0
4 112.0 195.0
5 119.0 187.0
6 109.0 47.0
7 76.0 186.0
8 53.0 90.0
9 34.0 200.0
10 88.0 123.0
11 152.0 31.0
12 7.0 52.0
13 80.0 5.0
14 196.0 96.0
15 164.0 88.0
16 135.0 14.0
17 145.0 129.0
18 8.0 123.0
19 191.0 43.0
20 7.0 110.0
21 159.0 112.0
22 198.0 107.0
23 149.0 110.0
24 189.0 134.0
25 144.0 44.0
26 29.0 146.0
27 6.0 200.0
28 145.0 30.0
29 16.0 181.0
30 109.0 13.0
31 104.0 158.0
32 111.0 45.0
33 4.0 69.0
34 135.0 158.0
35 33.0 160.0
36 188.0 91.0
37 81.0 89.0
38 158.0 64.0
39 136.0 182.0
40 73.0 55.0
41 121.0 130.0
42 141.0 4.0
43 198.0 191.0
44 9.0 82.0
45 127.0 129.0
46 168.0 172.0
47 58.0 155.0
48 131.0 3.0
49 55.0 183.0
50 134.0 153.0
51 182.0 187.0
52 72.0 134.0
53 159.0 47.0
54 58.0 33.0
55 155.0 195.0
56 15.0 12.0
57 143.0 4.0
58 134.0 31.0
59 88.0 142.0
60 166.0 83.0
61 88.0 177.0
62 107.0 133.0
63 64.0 80.0
64 26.0 106.0
65 2.0 38.0
66 178.0 40.0
67 101.0 151.0
68 134.0 152.0
69 168.0 123.0
70 67.0 66.0
71 25.0 140.0
72 51.0 46.0
73 37.0 180.0
74 128.0 76.0
75 167.0 181.0
76 182.0 96.0
77 113.0 11.0
78 20.0 177.0
79 45.0 190.0
80 11.0 101.0
81 61.0 44.0
82 62.0 90.0
83 88.0 132.0
84 60.0 6.0
85 113.0 73.0
86 74.0 32.0
87 103.0 161.0
88 154.0 178.0
89 95.0 186.0
90 27.0 32.0
91 97.0 126.0
92 121.0 133.0
93 165.0 73.0
94 7.0 107.0
95 85.0 12.0
96 118.0 40.0
97 13.0 126.0
98 49.0 4.0
99 23.0 116.0
100 94.0 30.0
101 147.0 21.0
102 62.0 87.0
103 78.0 97.0
104 139.0 49.0
105 78.0 106.0
106 72.0 188.0
107 56.0 180.0
108 55.0 132.0
109 48.0 48.0
110 32.0 168.0
111 129.0 194.0
112 182.0 171.0
113 161.0 21.0
114 105.0 89.0
115 125.0 101.0
116 124.0 175.0
117 11.0 49.0
118 16.0 46.0
119 160.0 79.0
120 45.0 87.0
121 41.0 113.0
122 27.0 64.0
123 41.0 196.0
124 125.0 48.0
125 7.0 128.0
126 20.0 114.0
127 98.0 110.0
128 77.0 147.0
129 120.0 98.0
130 159.0 158.0
131 80.0 18.0
132 10.0 174.0
133 30.0 81.0
134 186.0 54.0
135 54.0 182.0
136 61.0 40.0
137 106.0 193.0
138 168.0 17.0
139 156.0 62.0
140 98.0 108.0
141 160.0 173.0
142 108.0 159.0
143 50.0 94.0
144 18.0 46.0
145 155.0 167.0
146 48.0 173.0
147 46.0 18.0
148 141.0 132.0
149 31.0 147.0
150 161.0 91.0
151 107.0 107.0
152 163.0 126.0
153 45.0 48.0
154 118.0 115.0
155 79.0 144.0
156 29.0 100.0
157 197.0 41.0
158 51.0 98.0
159 48.0 36.0
160 106.0 150.0
161 10.0 173.0
162 144.0 30.0
163 113.0 5.0
164 130.0 23.0
165 43.0 19.0
166 186.0 175.0
167 32.0 102.0
168 82.0 160.0
169 18.0 43.0
170 198.0 155.0
171 63.0 71.0
172 177.0 22.0
173 38.0 182.0
174 102.0 61.0
175 189.0 19.0
176 161.0 5.0
177 47.0 15.0
178 163.0 18.0
179 80.0 185.0
180 60.0 36.0
181 40.0 50.0
182 17.0 15.0
183 180.0 167.0
184 90.0 98.0
185 114.0 172.0
186 37.0 74.0
187 145.0 42.0
188 161.0 102.0
189 139.0 170.0
190 166.0 49.0
191 176.0 149.0
192 133.0 5.0
193 47.0 189.0
194 21.0 195.0
195 140.0 99.0
196 33.0 165.0
197 29.0 162.0
198 117.0 189.0
199 170.0 121.0
200 88.0 134.0
EOF





